[VALIDATOR STDOUT]
Checking plan: /home/jfan5/Safety-gen/runs/benchmark/optic/ferry_20260201_171235/ferry/optic_results/ferry-l32-c17-s32001.plan
Plan executed successfully - checking goal
Plan valid
Final value: 76 

Successful plans:
Value: 76
 /home/jfan5/Safety-gen/runs/benchmark/optic/ferry_20260201_171235/ferry/optic_results/ferry-l32-c17-s32001.plan 76
